
%FILE DATA:	Soccer Computational Problem for MiniZinc Models	%
%AUTHOR:	Jack Wall	%
%CONTACT:  	116397063@umail.ucc.ie			%
%LAST UPDATE:	01/22/2020, 10:43:00						%
%DESCRIPTION: 	360 games played with 20 games left				%

n=20; %number of teams

%Games to play
games=[|12,9|2,14|6,14|9,20|19,3|15,6|10,11|10,15|17,14|7,12|19,7|17,15|5,6|20,7|8,10|1,14|15,18|14,16|6,5|15,14|];

%Initial points
iPoints=[36,61,50,36,60,48,41,52,53,48,45,45,54,40,45,40,57,67,50,37];

%POSITION CONSTRAINTS
% [|teamID, operator, position|...]
% operators index:
%  1 for =  operator
%  2 for >  operator
%  3 for >= operator
%  4 for <  operator
%  5 for <= operator
positionConstraints=[|18,4,2|5,4,3|17,4,4|2,4,5|];